40
     9    90    99    90    69   100    29    84    51     3    53    30    43    20    10    17    61    27    16    32    46    54    66    70    72    81    34    25    37    43    71    97    70    29     6    87    27    80    47     1
     5     1     8     3     2     8     5     1    10     3    10     3     1     1    10     3     6     7     7     1     3    10     4     4     9     4     8     2    10     2     1     4     9     9     7     3     9    10     5     1
  1503   881  1491   888  1415  1099  1158  1567  1376  1157   824  1580  1318   850  1077  1164   936  1348  1000  1277  1198  1023  1454   811  1510  1152   861  1300  1213   955   851   978  1493   931  1252  1068  1350  1048  1010  1416
